342 5
10 10 10 10 10 

0 0 0 0 0 0 5 2 14 26 38 50 
0 0 0 0 0 0 2 3 5 
8 0 0 1 0 0 2 7 4 
3 0 0 10 0 0 2 8 6 
3 0 0 8 0 0 2 7 6 
10 0 0 5 0 0 2 10 9 
7 0 0 5 0 0 2 10 9 
8 0 0 10 0 0 2 10 9 
2 0 0 10 0 0 1 12 
10 0 0 8 0 0 1 11 
3 0 0 10 0 0 1 13 
7 0 0 8 0 0 1 13 
0 0 0 0 0 0 1 62 
0 0 0 0 0 0 3 15 18 19 
2 0 0 0 5 0 3 21 17 16 
9 0 0 0 9 0 1 20 
10 0 0 0 8 0 1 20 
7 0 0 0 10 0 1 20 
9 0 0 0 7 0 1 20 
10 0 0 0 10 0 2 24 22 
8 0 0 0 7 0 2 24 22 
6 0 0 0 10 0 1 23 
5 0 0 0 6 0 1 25 
5 0 0 0 3 0 1 25 
0 0 0 0 0 0 1 62 
0 0 0 0 0 0 4 27 31 32 36 
8 0 0 0 5 0 1 28 
10 0 0 0 7 0 2 34 29 
8 0 0 0 9 0 1 30 
10 0 0 0 10 0 1 33 
9 0 0 0 8 0 1 35 
2 0 0 0 7 0 1 34 
5 0 0 0 6 0 1 37 
10 0 0 0 5 0 1 37 
10 0 0 0 10 0 1 37 
8 0 0 0 8 0 1 37 
0 0 0 0 0 0 1 62 
0 0 0 0 0 0 4 39 42 44 48 
4 0 5 0 0 0 1 40 
1 0 7 0 0 0 1 41 
8 0 8 0 0 0 3 47 46 43 
6 0 5 0 0 0 2 46 43 
1 0 10 0 0 0 1 45 
6 0 10 0 0 0 1 45 
2 0 8 0 0 0 1 49 
6 0 7 0 0 0 1 49 
3 0 7 0 0 0 1 49 
5 0 8 0 0 0 1 49 
0 0 0 0 0 0 1 62 
0 0 0 0 0 0 3 51 54 60 
6 0 2 0 0 0 2 59 52 
5 0 4 0 0 0 1 53 
7 0 10 0 0 0 3 58 57 55 
9 0 10 0 0 0 3 58 57 55 
5 0 6 0 0 0 1 56 
6 0 9 0 0 0 1 61 
1 0 10 0 0 0 1 61 
5 0 7 0 0 0 1 61 
7 0 10 0 0 0 1 61 
3 0 7 0 0 0 1 61 
0 0 0 0 0 0 1 62 
0 0 0 0 0 0 5 63 95 127 159 191 
0 0 0 0 0 0 3 64 65 93 
1 3 6 0 2 0 2 92 66 
10 7 7 0 4 0 3 92 77 67 
10 7 4 0 10 0 2 77 67 
3 9 7 0 6 0 1 68 
6 5 7 0 6 0 3 91 90 69 
1 10 6 0 10 0 1 70 
5 10 6 0 6 0 2 89 71 
8 10 8 0 10 0 3 88 87 72 
2 10 10 0 6 0 1 73 
2 6 7 0 10 0 1 74 
9 7 10 0 10 0 2 86 75 
5 6 10 0 7 0 1 76 
5 7 8 0 10 0 3 84 79 78 
1 8 9 0 10 0 4 86 82 81 79 
8 10 10 0 10 0 3 85 83 80 
10 10 7 0 10 0 1 83 
3 4 7 0 7 0 1 82 
3 10 7 0 6 0 1 84 
7 8 10 0 9 0 1 94 
4 7 5 0 9 0 1 94 
3 9 10 0 5 0 1 94 
7 10 4 0 3 0 1 94 
9 4 9 0 8 0 1 94 
9 3 5 0 5 0 1 94 
1 8 8 0 8 0 1 94 
7 8 7 0 6 0 1 94 
1 9 10 0 10 0 1 94 
3 5 1 0 6 0 1 94 
6 8 10 0 8 0 1 94 
5 7 10 0 8 0 1 94 
0 0 0 0 0 0 1 317 
0 0 0 0 0 0 3 96 97 102 
9 7 6 0 4 0 2 107 98 
10 6 10 0 7 0 2 107 98 
6 2 10 0 5 0 2 103 99 
8 6 7 0 3 0 2 105 100 
7 9 7 0 6 0 1 101 
9 5 7 0 6 0 3 111 110 104 
1 8 10 0 6 0 2 107 106 
2 8 4 0 9 0 1 105 
6 10 5 0 9 0 1 106 
4 7 10 0 8 0 1 106 
2 9 5 0 4 0 3 117 114 108 
6 5 7 0 10 0 3 117 110 108 
8 4 9 0 10 0 1 109 
2 8 8 0 6 0 2 118 112 
3 4 7 0 10 0 1 112 
2 10 7 0 3 0 1 112 
9 9 4 0 8 0 1 113 
2 10 10 0 10 0 2 125 115 
1 8 8 0 6 0 2 125 115 
10 8 9 0 9 0 2 120 116 
10 7 10 0 10 0 4 124 123 121 119 
5 10 9 0 10 0 4 125 123 122 121 
9 10 8 0 10 0 2 121 119 
10 5 10 0 6 0 1 122 
5 7 5 0 6 0 1 121 
2 10 3 0 10 0 1 126 
5 9 10 0 10 0 1 126 
10 9 8 0 9 0 1 126 
5 8 7 0 6 0 1 126 
9 7 5 0 9 0 1 126 
0 0 0 0 0 0 1 317 
0 0 0 0 0 0 3 128 129 138 
3 0 1 0 8 3 2 142 130 
3 0 10 0 6 6 2 142 130 
6 0 5 0 10 8 2 134 131 
6 0 10 0 9 10 2 137 132 
2 0 5 0 6 5 2 147 133 
1 0 7 0 3 6 2 145 135 
8 0 10 0 10 10 2 137 136 
1 0 5 0 10 7 1 136 
3 0 7 0 7 10 3 152 144 139 
6 0 7 0 9 5 2 152 139 
5 0 4 0 5 9 4 149 147 144 143 
3 0 7 0 6 6 2 149 140 
6 0 7 0 6 9 1 141 
9 0 9 0 7 10 1 143 
4 0 8 0 8 8 1 143 
3 0 6 0 5 9 2 157 146 
2 0 7 0 5 8 2 157 146 
6 0 7 0 7 9 2 157 146 
6 0 10 0 10 7 3 156 151 148 
9 0 6 0 8 6 3 156 151 148 
10 0 10 0 8 10 3 155 154 150 
5 0 5 0 10 6 1 150 
4 0 7 0 10 10 1 153 
7 0 10 0 6 5 1 154 
6 0 10 0 7 4 1 157 
5 0 8 0 7 5 1 158 
9 0 10 0 6 10 1 158 
3 0 7 0 10 9 1 158 
8 0 10 0 8 7 1 158 
1 0 10 0 8 8 1 158 
0 0 0 0 0 0 1 317 
0 0 0 0 0 0 3 160 162 189 
10 4 3 0 6 0 2 188 161 
9 4 5 0 7 0 2 186 163 
8 6 10 0 4 0 2 187 163 
1 9 6 0 10 0 1 164 
4 9 10 0 10 0 3 185 184 165 
1 10 6 0 8 0 1 166 
5 6 8 0 5 0 3 183 182 167 
6 9 7 0 9 0 2 181 168 
2 7 10 0 7 0 1 169 
2 8 9 0 10 0 1 170 
10 10 7 0 9 0 2 180 171 
9 6 6 0 7 0 1 172 
7 8 7 0 9 0 5 179 178 177 176 173 
10 5 9 0 5 0 1 174 
10 10 5 0 5 0 1 175 
3 7 8 0 5 0 1 190 
9 8 3 0 9 0 1 190 
7 10 10 0 7 0 1 190 
5 7 5 0 8 0 1 190 
2 8 7 0 10 0 1 190 
7 7 6 0 8 0 1 190 
7 7 10 0 10 0 1 190 
10 8 8 0 5 0 1 190 
9 9 10 0 6 0 1 190 
3 5 6 0 8 0 1 190 
4 10 10 0 10 0 1 190 
9 6 7 0 9 0 1 190 
6 7 7 0 9 0 1 190 
1 6 10 0 7 0 1 190 
4 9 10 0 3 0 1 190 
0 0 0 0 0 0 1 317 
0 0 0 0 0 0 2 192 193 
4 0 0 1 0 0 1 194 
4 0 0 4 0 0 3 199 198 196 
2 0 0 8 0 0 1 195 
8 0 0 9 0 0 3 199 198 197 
5 0 0 8 0 0 1 197 
5 0 0 10 0 0 1 200 
3 0 0 10 0 0 1 201 
6 0 0 10 0 0 1 200 
10 0 0 5 0 0 1 202 
3 0 0 10 0 0 1 202 
0 0 0 0 0 0 4 203 225 247 259 
0 0 0 0 0 0 4 204 205 210 211 
9 2 0 7 0 0 3 213 212 206 
6 3 0 8 0 0 5 218 215 213 212 208 
3 10 0 9 0 0 1 207 
9 9 0 8 0 0 3 218 215 208 
7 8 0 6 0 0 1 209 
10 6 0 6 0 0 2 216 214 
9 10 0 4 0 0 2 216 215 
7 8 0 9 0 0 1 212 
6 7 0 10 0 0 2 223 216 
3 8 0 8 0 0 1 214 
7 9 0 7 0 0 2 223 217 
6 9 0 3 0 0 2 223 217 
1 8 0 9 0 0 1 217 
8 10 0 9 0 0 2 222 219 
9 10 0 10 0 0 2 223 220 
2 8 0 7 0 0 1 220 
9 4 0 10 0 0 1 221 
7 6 0 6 0 0 1 224 
9 5 0 7 0 0 1 224 
10 10 0 7 0 0 1 224 
0 0 0 0 0 0 1 317 
0 0 0 0 0 0 1 226 
5 0 4 0 0 5 2 229 227 
10 0 6 0 0 5 1 228 
9 0 5 0 0 8 1 230 
1 0 3 0 0 6 1 230 
2 0 10 0 0 8 2 233 231 
7 0 7 0 0 9 3 245 237 232 
10 0 5 0 0 10 3 238 236 234 
6 0 10 0 0 10 3 238 236 235 
9 0 8 0 0 10 1 235 
2 0 8 0 0 5 3 243 242 239 
8 0 7 0 0 8 2 244 243 
9 0 8 0 0 6 2 242 241 
8 0 10 0 0 9 1 240 
7 0 7 0 0 5 1 241 
4 0 8 0 0 6 1 241 
3 0 10 0 0 8 1 246 
9 0 10 0 0 8 1 246 
2 0 10 0 0 7 1 246 
6 0 8 0 0 10 1 246 
1 0 6 0 0 7 1 246 
0 0 0 0 0 0 1 317 
0 0 0 0 0 0 3 248 250 251 
8 0 4 0 0 0 2 254 249 
6 0 3 0 0 0 3 257 255 252 
3 0 5 0 0 0 2 256 254 
9 0 10 0 0 0 2 257 256 
4 0 10 0 0 0 1 253 
6 0 7 0 0 0 1 256 
8 0 8 0 0 0 1 257 
2 0 9 0 0 0 1 256 
1 0 10 0 0 0 1 258 
1 0 9 0 0 0 1 258 
0 0 0 0 0 0 3 281 293 305 
0 0 0 0 0 0 1 260 
2 0 3 0 0 4 1 261 
5 0 10 0 0 5 2 263 262 
1 0 6 0 0 9 1 264 
7 0 10 0 0 7 1 264 
4 0 10 0 0 8 1 265 
1 0 6 0 0 5 2 267 266 
7 0 7 0 0 10 2 270 268 
3 0 6 0 0 6 1 268 
7 0 10 0 0 10 4 273 272 271 269 
10 0 10 0 0 10 5 279 278 276 275 274 
1 0 3 0 0 7 5 279 278 276 275 274 
1 0 6 0 0 9 4 279 278 276 275 
10 0 10 0 0 9 4 278 276 275 274 
1 0 10 0 0 7 3 279 278 274 
2 0 8 0 0 10 1 277 
3 0 8 0 0 6 1 277 
1 0 10 0 0 7 1 277 
5 0 4 0 0 10 1 280 
7 0 7 0 0 7 1 280 
2 0 6 0 0 4 1 280 
0 0 0 0 0 0 1 317 
0 0 0 0 0 0 2 282 284 
9 0 3 0 0 0 2 286 283 
7 0 3 0 0 0 2 287 285 
5 0 10 0 0 0 1 285 
1 0 10 0 0 0 3 291 290 288 
5 0 8 0 0 0 2 290 288 
9 0 8 0 0 0 2 290 289 
7 0 8 0 0 0 1 289 
5 0 6 0 0 0 1 292 
5 0 9 0 0 0 1 292 
9 0 10 0 0 0 1 292 
0 0 0 0 0 0 1 317 
0 0 0 0 0 0 2 294 296 
9 0 0 0 0 1 1 295 
6 0 0 0 0 10 2 299 297 
1 0 0 0 0 10 1 298 
6 0 0 0 0 8 2 301 300 
8 0 0 0 0 9 2 301 300 
4 0 0 0 0 4 2 302 300 
1 0 0 0 0 9 1 303 
3 0 0 0 0 9 1 302 
3 0 0 0 0 6 1 304 
2 0 0 0 0 9 1 304 
0 0 0 0 0 0 1 317 
0 0 0 0 0 0 4 306 309 312 315 
9 0 0 3 0 0 1 307 
9 0 0 10 0 0 1 308 
1 0 0 5 0 0 2 314 310 
5 0 0 7 0 0 1 311 
3 0 0 10 0 0 1 313 
8 0 0 6 0 0 1 313 
6 0 0 6 0 0 1 313 
3 0 0 9 0 0 1 316 
2 0 0 10 0 0 1 316 
8 0 0 9 0 0 1 316 
0 0 0 0 0 0 1 317 
0 0 0 0 0 0 2 318 330 
0 0 0 0 0 0 4 319 321 322 328 
2 0 0 0 3 0 1 320 
5 0 0 0 8 0 3 327 326 323 
5 0 0 0 8 0 2 327 324 
7 0 0 0 8 0 2 326 325 
3 0 0 0 10 0 1 324 
9 0 0 0 6 0 1 325 
8 0 0 0 8 0 1 329 
3 0 0 0 8 0 1 329 
10 0 0 0 6 0 1 329 
7 0 0 0 10 0 1 329 
0 0 0 0 0 0 1 342 
0 0 0 0 0 0 2 331 333 
9 0 2 0 0 0 2 340 332 
4 0 10 0 0 0 4 339 338 337 334 
10 0 9 0 0 0 2 337 335 
5 0 8 0 0 0 1 335 
4 0 5 0 0 0 1 336 
7 0 8 0 0 0 1 341 
9 0 7 0 0 0 1 341 
2 0 8 0 0 0 1 341 
4 0 10 0 0 0 1 341 
9 0 8 0 0 0 1 341 
0 0 0 0 0 0 1 342 
0 0 0 0 0 0 0 
